c FILE: queen6_6.col
c Translated from Stanford GraphBase File: queen6_6.sgb
c Stanford GraphBase ID: gunion(board(6,6,0,0,-1,0,0),board(6,6,0,0,-2,0,0),0,0)
p edge 36 580
e 1 8
e 1 15
e 1 22
e 1 29
e 1 36
e 1 2
e 1 3
e 1 4
e 1 5
e 1 6
e 1 7
e 1 13
e 1 19
e 1 25
e 1 31
e 2 9
e 2 16
e 2 23
e 2 30
e 2 7
e 2 3
e 2 4
e 2 5
e 2 6
e 2 8
e 2 14
e 2 20
e 2 26
e 2 32
e 2 1
e 3 10
e 3 17
e 3 24
e 3 8
e 3 13
e 3 4
e 3 5
e 3 6
e 3 9
e 3 15
e 3 21
e 3 27
e 3 33
e 3 2
e 3 1
e 4 11
e 4 18
e 4 9
e 4 14
e 4 19
e 4 5
e 4 6
e 4 10
e 4 16
e 4 22
e 4 28
e 4 34
e 4 3
e 4 2
e 4 1
e 5 12
e 5 10
e 5 15
e 5 20
e 5 25
e 5 6
e 5 11
e 5 17
e 5 23
e 5 29
e 5 35
e 5 4
e 5 3
e 5 2
e 5 1
e 6 11
e 6 16
e 6 21
e 6 26
e 6 31
e 6 12
e 6 18
e 6 24
e 6 30
e 6 36
e 6 5
e 6 4
e 6 3
e 6 2
e 6 1
e 7 14
e 7 21
e 7 28
e 7 35
e 7 8
e 7 9
e 7 10
e 7 11
e 7 12
e 7 13
e 7 19
e 7 25
e 7 31
e 7 2
e 7 1
e 8 15
e 8 22
e 8 29
e 8 36
e 8 13
e 8 9
e 8 10
e 8 11
e 8 12
e 8 14
e 8 20
e 8 26
e 8 32
e 8 7
e 8 3
e 8 2
e 8 1
e 9 16
e 9 23
e 9 30
e 9 14
e 9 19
e 9 10
e 9 11
e 9 12
e 9 15
e 9 21
e 9 27
e 9 33
e 9 8
e 9 7
e 9 4
e 9 3
e 9 2
e 10 17
e 10 24
e 10 15
e 10 20
e 10 25
e 10 11
e 10 12
e 10 16
e 10 22
e 10 28
e 10 34
e 10 9
e 10 8
e 10 7
e 10 5
e 10 4
e 10 3
e 11 18
e 11 16
e 11 21
e 11 26
e 11 31
e 11 12
e 11 17
e 11 23
e 11 29
e 11 35
e 11 10
e 11 9
e 11 8
e 11 7
e 11 6
e 11 5
e 11 4
e 12 17
e 12 22
e 12 27
e 12 32
e 12 18
e 12 24
e 12 30
e 12 36
e 12 11
e 12 10
e 12 9
e 12 8
e 12 7
e 12 6
e 12 5
e 13 20
e 13 27
e 13 34
e 13 14
e 13 15
e 13 16
e 13 17
e 13 18
e 13 19
e 13 25
e 13 31
e 13 8
e 13 7
e 13 3
e 13 1
e 14 21
e 14 28
e 14 35
e 14 19
e 14 15
e 14 16
e 14 17
e 14 18
e 14 20
e 14 26
e 14 32
e 14 13
e 14 9
e 14 8
e 14 7
e 14 4
e 14 2
e 15 22
e 15 29
e 15 36
e 15 20
e 15 25
e 15 16
e 15 17
e 15 18
e 15 21
e 15 27
e 15 33
e 15 14
e 15 13
e 15 10
e 15 9
e 15 8
e 15 5
e 15 3
e 15 1
e 16 23
e 16 30
e 16 21
e 16 26
e 16 31
e 16 17
e 16 18
e 16 22
e 16 28
e 16 34
e 16 15
e 16 14
e 16 13
e 16 11
e 16 10
e 16 9
e 16 6
e 16 4
e 16 2
e 17 24
e 17 22
e 17 27
e 17 32
e 17 18
e 17 23
e 17 29
e 17 35
e 17 16
e 17 15
e 17 14
e 17 13
e 17 12
e 17 11
e 17 10
e 17 5
e 17 3
e 18 23
e 18 28
e 18 33
e 18 24
e 18 30
e 18 36
e 18 17
e 18 16
e 18 15
e 18 14
e 18 13
e 18 12
e 18 11
e 18 6
e 18 4
e 19 26
e 19 33
e 19 20
e 19 21
e 19 22
e 19 23
e 19 24
e 19 25
e 19 31
e 19 14
e 19 13
e 19 9
e 19 7
e 19 4
e 19 1
e 20 27
e 20 34
e 20 25
e 20 21
e 20 22
e 20 23
e 20 24
e 20 26
e 20 32
e 20 19
e 20 15
e 20 14
e 20 13
e 20 10
e 20 8
e 20 5
e 20 2
e 21 28
e 21 35
e 21 26
e 21 31
e 21 22
e 21 23
e 21 24
e 21 27
e 21 33
e 21 20
e 21 19
e 21 16
e 21 15
e 21 14
e 21 11
e 21 9
e 21 7
e 21 6
e 21 3
e 22 29
e 22 36
e 22 27
e 22 32
e 22 23
e 22 24
e 22 28
e 22 34
e 22 21
e 22 20
e 22 19
e 22 17
e 22 16
e 22 15
e 22 12
e 22 10
e 22 8
e 22 4
e 22 1
e 23 30
e 23 28
e 23 33
e 23 24
e 23 29
e 23 35
e 23 22
e 23 21
e 23 20
e 23 19
e 23 18
e 23 17
e 23 16
e 23 11
e 23 9
e 23 5
e 23 2
e 24 29
e 24 34
e 24 30
e 24 36
e 24 23
e 24 22
e 24 21
e 24 20
e 24 19
e 24 18
e 24 17
e 24 12
e 24 10
e 24 6
e 24 3
e 25 32
e 25 26
e 25 27
e 25 28
e 25 29
e 25 30
e 25 31
e 25 20
e 25 19
e 25 15
e 25 13
e 25 10
e 25 7
e 25 5
e 25 1
e 26 33
e 26 31
e 26 27
e 26 28
e 26 29
e 26 30
e 26 32
e 26 25
e 26 21
e 26 20
e 26 19
e 26 16
e 26 14
e 26 11
e 26 8
e 26 6
e 26 2
e 27 34
e 27 32
e 27 28
e 27 29
e 27 30
e 27 33
e 27 26
e 27 25
e 27 22
e 27 21
e 27 20
e 27 17
e 27 15
e 27 13
e 27 12
e 27 9
e 27 3
e 28 35
e 28 33
e 28 29
e 28 30
e 28 34
e 28 27
e 28 26
e 28 25
e 28 23
e 28 22
e 28 21
e 28 18
e 28 16
e 28 14
e 28 10
e 28 7
e 28 4
e 29 36
e 29 34
e 29 30
e 29 35
e 29 28
e 29 27
e 29 26
e 29 25
e 29 24
e 29 23
e 29 22
e 29 17
e 29 15
e 29 11
e 29 8
e 29 5
e 29 1
e 30 35
e 30 36
e 30 29
e 30 28
e 30 27
e 30 26
e 30 25
e 30 24
e 30 23
e 30 18
e 30 16
e 30 12
e 30 9
e 30 6
e 30 2
e 31 32
e 31 33
e 31 34
e 31 35
e 31 36
e 31 26
e 31 25
e 31 21
e 31 19
e 31 16
e 31 13
e 31 11
e 31 7
e 31 6
e 31 1
e 32 33
e 32 34
e 32 35
e 32 36
e 32 31
e 32 27
e 32 26
e 32 25
e 32 22
e 32 20
e 32 17
e 32 14
e 32 12
e 32 8
e 32 2
e 33 34
e 33 35
e 33 36
e 33 32
e 33 31
e 33 28
e 33 27
e 33 26
e 33 23
e 33 21
e 33 19
e 33 18
e 33 15
e 33 9
e 33 3
e 34 35
e 34 36
e 34 33
e 34 32
e 34 31
e 34 29
e 34 28
e 34 27
e 34 24
e 34 22
e 34 20
e 34 16
e 34 13
e 34 10
e 34 4
e 35 36
e 35 34
e 35 33
e 35 32
e 35 31
e 35 30
e 35 29
e 35 28
e 35 23
e 35 21
e 35 17
e 35 14
e 35 11
e 35 7
e 35 5
e 36 35
e 36 34
e 36 33
e 36 32
e 36 31
e 36 30
e 36 29
e 36 24
e 36 22
e 36 18
e 36 15
e 36 12
e 36 8
e 36 6
e 36 1
